20 130
1 2
1 3
1 4
1 5
1 6
1 8
1 10
1 11
1 12
1 13
1 14
1 17
1 18
1 19
2 3
2 5
2 6
2 7
2 8
2 11
2 12
2 13
2 14
2 15
2 16
2 17
2 18
2 19
2 20
3 5
3 6
3 7
3 8
3 13
3 14
3 15
3 16
3 17
3 18
3 19
3 20
4 5
4 7
4 8
4 9
4 10
4 11
4 16
4 17
4 19
4 20
5 11
5 12
5 13
5 14
5 15
5 16
5 17
5 18
5 19
6 8
6 9
6 13
6 14
6 15
6 16
6 17
6 18
6 19
6 20
7 8
7 10
7 11
7 12
7 17
7 18
7 19
7 20
8 10
8 12
8 14
8 18
8 19
9 11
9 12
9 13
9 15
9 16
9 17
9 19
9 20
10 12
10 13
10 15
10 16
10 17
10 19
10 20
11 12
11 16
11 17
11 19
11 20
12 13
12 14
12 15
12 16
12 17
12 18
12 20
13 14
13 15
13 16
13 19
13 20
14 15
14 16
14 17
14 18
14 19
15 16
15 18
15 19
16 18
16 20
17 18
17 19
18 19
18 20
19 20
